certificates/rado_a9_c48_N17.cnf
c Rad2 upper bound instance: x1 + 9*x2 - x3 = 48, interval [1,17]
p cnf 17 64
1 6 7 0
-1 -6 -7 0
1 7 16 0
-1 -7 -16 0
2 6 8 0
-2 -6 -8 0
2 7 17 0
-2 -7 -17 0
3 6 9 0
-3 -6 -9 0
1 4 5 0
-1 -4 -5 0
4 6 10 0
-4 -6 -10 0
2 5 0
-2 -5 0
5 6 11 0
-5 -6 -11 0
3 5 6 0
-3 -5 -6 0
6 12 0
-6 -12 0
4 5 7 0
-4 -5 -7 0
6 7 13 0
-6 -7 -13 0
5 8 0
-5 -8 0
6 8 14 0
-6 -8 -14 0
5 6 9 0
-5 -6 -9 0
6 9 15 0
-6 -9 -15 0
5 7 10 0
-5 -7 -10 0
6 10 16 0
-6 -10 -16 0
5 8 11 0
-5 -8 -11 0
6 11 17 0
-6 -11 -17 0
5 9 12 0
-5 -9 -12 0
1 4 13 0
-1 -4 -13 0
5 10 13 0
-5 -10 -13 0
2 4 14 0
-2 -4 -14 0
5 11 14 0
-5 -11 -14 0
3 4 15 0
-3 -4 -15 0
5 12 15 0
-5 -12 -15 0
4 16 0
-4 -16 0
5 13 16 0
-5 -13 -16 0
4 5 17 0
-4 -5 -17 0
5 14 17 0
-5 -14 -17 0
