certificates/rado_a9_c48_N17.drat
5 4 -17 0
4 -17 0
d 5 4 -17 0
-17 0
14 0
-5 0
2 0
8 0
4 0
0
